50
1 3
1 4
1 5
1 7
1 8
1 9
1 10
1 14
1 15
1 16
1 27
1 28
1 29
1 31
1 33
1 34
1 35
1 39
1 40
1 42
1 45
1 49
2 3
2 5
2 6
2 8
2 11
2 13
2 15
2 18
2 21
2 23
2 27
2 31
2 32
2 36
2 38
2 39
2 46
2 47
2 48
2 50
3 7
3 11
3 12
3 13
3 15
3 16
3 19
3 20
3 23
3 24
3 25
3 28
3 30
3 31
3 33
3 34
3 38
3 39
3 40
3 42
3 43
3 46
3 50
4 5
4 9
4 12
4 13
4 14
4 15
4 16
4 19
4 24
4 28
4 30
4 36
4 41
4 43
4 44
4 45
4 47
5 6
5 11
5 24
5 26
5 27
5 31
5 35
5 39
5 40
5 41
5 43
5 44
5 47
5 48
6 8
6 11
6 12
6 14
6 15
6 25
6 26
6 27
6 30
6 32
6 34
6 36
6 37
6 39
6 40
6 43
6 45
6 46
6 50
7 8
7 9
7 10
7 11
7 12
7 13
7 14
7 17
7 18
7 20
7 22
7 24
7 25
7 26
7 29
7 32
7 33
7 35
7 37
7 38
7 39
7 40
7 45
7 46
7 47
7 49
8 9
8 10
8 11
8 12
8 17
8 26
8 28
8 29
8 32
8 35
8 40
8 41
8 46
8 49
8 50
9 10
9 13
9 26
9 28
9 35
9 49
9 50
10 11
10 14
10 15
10 16
10 20
10 23
10 26
10 27
10 28
10 29
10 31
10 34
10 38
10 39
10 42
10 43
10 45
10 46
10 49
11 12
11 14
11 15
11 17
11 19
11 20
11 22
11 23
11 24
11 30
11 38
11 39
11 44
11 45
11 50
12 13
12 18
12 19
12 23
12 26
12 33
12 35
12 39
12 40
12 43
12 44
12 45
12 46
12 49
13 14
13 15
13 17
13 18
13 19
13 23
13 24
13 28
13 33
13 34
13 36
13 41
13 42
13 46
13 47
13 50
14 16
14 17
14 18
14 20
14 23
14 24
14 27
14 28
14 29
14 31
14 33
14 35
14 40
14 42
14 48
14 49
15 16
15 18
15 19
15 23
15 25
15 27
15 28
15 33
15 34
15 36
15 39
15 40
15 44
15 46
15 47
15 48
15 49
15 50
16 17
16 18
16 19
16 22
16 25
16 29
16 32
16 34
16 36
16 38
16 39
16 40
16 41
16 42
16 43
16 44
16 47
17 19
17 21
17 22
17 23
17 24
17 28
17 29
17 34
17 37
17 38
17 39
17 44
17 45
18 25
18 29
18 31
18 32
18 34
18 35
18 37
18 39
18 41
18 47
18 48
18 50
19 22
19 25
19 26
19 28
19 29
19 33
19 35
19 36
19 38
19 39
19 41
19 42
19 44
19 47
19 50
20 24
20 26
20 30
20 33
20 35
20 38
20 40
20 44
20 45
20 47
20 50
21 22
21 25
21 28
21 31
21 32
21 34
21 35
21 39
21 42
21 44
21 45
21 46
21 50
22 26
22 27
22 29
22 30
22 32
22 33
22 39
22 40
22 42
22 43
22 45
22 47
23 29
23 37
23 42
23 43
23 45
23 48
24 27
24 28
24 29
24 30
24 32
24 34
24 36
24 37
24 38
24 43
24 46
25 26
25 27
25 29
25 32
25 36
25 38
25 39
25 40
25 41
25 44
25 47
25 48
26 28
26 31
26 33
26 34
26 36
26 37
26 38
26 40
26 41
26 43
26 44
26 47
26 49
26 50
27 29
27 33
27 34
27 36
27 37
27 39
27 40
27 47
27 48
27 49
28 31
28 39
28 40
28 43
28 44
28 46
28 48
28 49
29 30
29 31
29 32
29 34
29 35
29 36
29 37
29 38
29 41
29 43
29 44
29 47
29 48
30 31
30 33
30 35
30 38
30 42
30 44
30 46
30 47
30 48
31 33
31 35
31 37
31 38
31 39
31 40
31 43
31 48
31 50
32 37
32 38
32 39
32 46
32 47
32 48
32 49
33 35
33 37
33 38
33 39
33 40
33 46
33 47
33 48
33 50
34 35
34 38
34 39
34 46
34 47
34 48
35 36
35 38
35 41
35 44
35 46
35 49
36 38
36 39
36 44
36 45
36 47
36 48
37 39
37 44
37 48
37 49
37 50
38 40
38 47
39 43
39 45
39 48
40 41
40 44
40 46
40 47
40 48
40 49
41 43
41 45
41 49
41 50
42 43
43 45
43 46
43 47
44 45
44 46
44 49
44 50
45 46
45 47
45 48
45 49
46 48
47 49
48 50
